COLUMNS

passenger_count
pickup_ID
dropoff_ID
request_time_sec
pickup_district
dropoff_district
LDuals
IDuals
vehicle_ID
pick_position
drop_position

REQUESTS_INFO
3      859       721       29171     290       290       231       231       30        1         2         
1      789       674       29244     290       189       119       119       134       1         2         
1      861       697       29170     290       189       216       216       197       1         2         
1      276       398       29229     87        168       145       145       236       1         2         
1      277       464       29246     87        168       135       135       242       1         2         
2      815       746       29219     290       290       140       140       326       1         2         
4      305       116       29232     299       9         155       155       372       1         2         
1      811       742       29242     290       290       134       134       382       1         2         
1      1172      875       29239     129       291       157       157       396       1         2         
2      905       946       29186     290       290       208       208       400       1         2         
1      354       629       29221     119       189       157       157       468       1         2         
3      969       884       29191     290       290       193       193       471       1         2         
3      434       417       29232     52        100       157       157       474       1         2         
1      1068      1189      29232     291       192       154       154       531       1         2         
3      860       770       29247     290       290       173       173       548       1         2         
1      812       621       29195     290       280       154       154       574       1         3         
2      860       925       29243     290       290       177       177       631       1         2         
1      1172      650       29249     129       189       144       144       632       1         3         
1      331       650       29235     127       189       174       174       645       1         3         
2      841       651       29193     290       189       156       156       660       1         4         
1      317       535       29224     277       189       185       185       666       1         2         
3      654       650       29235     189       189       111       111       728       1         2         
1      295       398       29227     87        168       138       138       774       1         2         
2      824       1088      29239     291       291       133       133       801       1         2         
1      873       1044      29235     291       291       139       139       868       1         3         
1      220       88        29157     87        178       232       232       916       1         2         
3      969       835       29232     290       290       152       152       920       1         2         
1      332       593       29228     87        52        146       146       922       1         4         
1      925       488       29204     290       199       175       175       965       1         5         
1      905       625       29192     290       189       165       165       1070      1         4         
3      969       835       29232     290       290       152       152       1128      1         2         
2      1282      650       29226     192       189       159       159       1228      1         2         
1      1417      648       29193     129       189       210       210       1261      1         3         
1      804       958       29221     291       291       131       131       1303      1         2         
1      350       314       29228     127       119       174       174       1333      1         2         
2      1301      1188      29245     192       192       122       122       1347      1         2         
1      759       616       29237     131       131       119       119       1370      1         3         
2      969       859       29238     290       290       121       121       1388      1         2         
3      914       738       29218     291       189       143       143       1395      1         2         
1      924       968       29191     290       290       155       155       1409      1         3         
3      747       699       29180     290       290       191       191       1422      1         2         
1      936       851       29199     291       291       148       148       1428      1         2         
3      747       581       29243     290       189       122       122       1458      1         2         
2      724       639       29199     290       131       143       143       1475      1         2         
2      882       768       29198     290       290       154       154       1491      1         3         
2      527       416       29250     52        100       0         0         0         0         0         
3      374       325       29250     119       299       0         0         0         0         0         
2      374       325       29250     119       299       0         0         0         0         0         
1      604       697       29250     189       189       0         0         0         0         0         
1      458       652       29250     52        189       0         0         0         0         0         
1      1066      604       29251     291       189       0         0         0         0         0         
1      606       485       29251     189       189       0         0         0         0         0         
2      179       273       29251     178       206       0         0         0         0         0         
1      597       616       29251     131       131       0         0         0         0         0         
1      418       557       29251     168       189       0         0         0         0         0         
1      689       673       29252     131       189       0         0         0         0         0         
1      236       182       29252     87        178       0         0         0         0         0         
1      577       507       29252     189       189       0         0         0         0         0         
1      412       330       29252     52        127       0         0         0         0         0         
3      702       689       29252     290       131       0         0         0         0         0         
3      702       689       29252     290       131       0         0         0         0         0         
1      1107      674       29253     291       189       0         0         0         0         0         
1      896       673       29253     291       189       0         0         0         0         0         
3      439       544       29253     189       52        0         0         0         0         0         
1      549       664       29253     52        131       0         0         0         0         0         
1      314       506       29253     119       189       0         0         0         0         0         
3      440       457       29254     168       52        0         0         0         0         0         
2      440       457       29254     168       52        0         0         0         0         0         
1      309       581       29254     127       189       0         0         0         0         0         
1      905       640       29254     290       131       0         0         0         0         0         
1      529       663       29254     189       131       0         0         0         0         0         
1      916       647       29254     291       280       0         0         0         0         0         
1      598       459       29255     189       189       0         0         0         0         0         
2      619       556       29255     131       199       0         0         0         0         0         
1      459       737       29255     189       189       0         0         0         0         0         
1      466       651       29255     199       189       0         0         0         0         0         
1      556       732       29255     199       131       0         0         0         0         0         
1      667       556       29255     131       199       0         0         0         0         0         
1      905       689       29255     290       131       0         0         0         0         0         
1      782       394       29256     291       100       0         0         0         0         0         
1      970       648       29256     290       189       0         0         0         0         0         
1      745       575       29256     290       189       0         0         0         0         0         
1      274       193       29256     87        266       0         0         0         0         0         
2      413       671       29256     52        280       0         0         0         0         0         
1      980       780       29256     291       291       0         0         0         0         0         
2      884       721       29256     290       290       0         0         0         0         0         
3      1171      1207      29257     192       192       0         0         0         0         0         
3      1171      1207      29257     192       192       0         0         0         0         0         
1      863       693       29257     290       280       0         0         0         0         0         
1      1066      624       29257     291       189       0         0         0         0         0         
1      713       616       29258     131       131       0         0         0         0         0         
2      578       728       29258     189       290       0         0         0         0         0         
1      882       604       29259     290       189       0         0         0         0         0         
1      578       335       29259     189       119       0         0         0         0         0         
3      1160      1219      29260     84        84        0         0         0         0         0         
1      505       46        29260     52        98        0         0         0         0         0         
1      43        349       29260     9         127       0         0         0         0         0         
1      34        66        29260     98        98        0         0         0         0         0         
1      842       815       29260     290       290       0         0         0         0         0         
3      1160      1219      29260     84        84        0         0         0         0         0         
1      811       743       29261     290       290       0         0         0         0         0         
1      817       154       29261     290       286       0         0         0         0         0         
1      1187      1066      29261     291       291       0         0         0         0         0         
1      291       627       29262     87        189       0         0         0         0         0         
2      847       696       29262     291       189       0         0         0         0         0         
1      836       721       29263     290       290       0         0         0         0         0         
1      526       720       29263     52        290       0         0         0         0         0         
1      677       558       29263     189       189       0         0         0         0         0         
1      717       701       29263     189       290       0         0         0         0         0         
1      461       556       29263     189       199       0         0         0         0         0         
1      372       171       29263     119       286       0         0         0         0         0         
2      605       621       29263     189       280       0         0         0         0         0         
1      738       284       29264     189       299       0         0         0         0         0         
3      390       134       29264     52        9         0         0         0         0         0         
1      795       894       29264     290       291       0         0         0         0         0         
1      849       116       29264     291       9         0         0         0         0         0         
1      621       765       29264     280       290       0         0         0         0         0         
2      390       134       29264     52        9         0         0         0         0         0         
1      434       601       29264     52        189       0         0         0         0         0         
1      618       794       29264     131       290       0         0         0         0         0         
1      827       554       29265     291       189       0         0         0         0         0         
1      925       864       29265     290       290       0         0         0         0         0         
1      630       529       29265     189       189       0         0         0         0         0         
3      312       453       29265     87        52        0         0         0         0         0         
1      805       727       29265     291       290       0         0         0         0         0         
1      981       948       29265     291       290       0         0         0         0         0         
1      460       524       29266     189       52        0         0         0         0         0         
1      839       991       29266     290       290       0         0         0         0         0         
1      1341      1074      29266     129       84        0         0         0         0         0         
1      1448      623       29266     129       280       0         0         0         0         0         
1      881       605       29266     290       189       0         0         0         0         0         
1      527       627       29266     52        189       0         0         0         0         0         
4      983       19        29266     291       98        0         0         0         0         0         
1      735       616       29266     131       131       0         0         0         0         0         
1      839       606       29266     290       189       0         0         0         0         0         
1      947       840       29267     290       290       0         0         0         0         0         
1      599       394       29267     280       100       0         0         0         0         0         
1      1011      905       29267     84        290       0         0         0         0         0         
1      828       834       29267     291       290       0         0         0         0         0         
2      665       780       29267     131       291       0         0         0         0         0         
1      527       289       29268     52        127       0         0         0         0         0         
3      580       725       29268     189       290       0         0         0         0         0         
2      268       134       29268     299       9         0         0         0         0         0         
3      308       333       29268     127       119       0         0         0         0         0         
2      308       333       29268     127       119       0         0         0         0         0         
1      892       671       29269     291       280       0         0         0         0         0         
1      874       824       29269     291       291       0         0         0         0         0         
1      1319      344       29269     129       299       0         0         0         0         0         
3      643       577       29269     131       189       0         0         0         0         0         
1      972       815       29269     290       290       0         0         0         0         0         
3      304       390       29270     299       52        0         0         0         0         0         
3      304       390       29270     299       52        0         0         0         0         0         
2      463       10        29270     168       98        0         0         0         0         0         
3      1001      604       29270     291       189       0         0         0         0         0         
3      1001      604       29270     291       189       0         0         0         0         0         
1      62        47        29270     98        98        0         0         0         0         0         
2      858       578       29270     290       189       0         0         0         0         0         
1      694       232       29270     189       266       0         0         0         0         0         
1      1025      817       29270     291       290       0         0         0         0         0         
1      737       100       29271     189       57        0         0         0         0         0         
1      813       862       29271     290       290       0         0         0         0         0         
1      839       35        29271     290       98        0         0         0         0         0         
3      509       721       29271     199       290       0         0         0         0         0         
1      372       776       29271     119       131       0         0         0         0         0         
3      210       484       29272     266       189       0         0         0         0         0         
3      210       484       29272     266       189       0         0         0         0         0         
3      307       116       29272     127       9         0         0         0         0         0         
1      598       598       29272     189       189       0         0         0         0         0         
1      695       769       29272     189       290       0         0         0         0         0         
1      324       759       29272     299       131       0         0         0         0         0         
2      307       116       29272     127       9         0         0         0         0         0         
1      768       924       29273     290       290       0         0         0         0         0         
1      236       372       29273     87        119       0         0         0         0         0         
1      665       894       29273     131       291       0         0         0         0         0         
1      1158      459       29274     84        189       0         0         0         0         0         
2      811       727       29274     290       290       0         0         0         0         0         
1      981       673       29274     291       189       0         0         0         0         0         
1      1022      794       29274     291       290       0         0         0         0         0         
3      210       602       29275     266       189       0         0         0         0         0         
3      210       602       29275     266       189       0         0         0         0         0         
1      348       593       29275     299       52        0         0         0         0         0         
1      440       232       29275     168       266       0         0         0         0         0         
3      858       744       29275     290       290       0         0         0         0         0         
3      858       744       29275     290       290       0         0         0         0         0         
2      436       555       29276     100       199       0         0         0         0         0         
1      736       748       29276     131       290       0         0         0         0         0         
2      443       671       29276     168       280       0         0         0         0         0         
1      859       923       29276     290       290       0         0         0         0         0         
1      395       604       29277     100       189       0         0         0         0         0         
1      947       696       29277     290       189       0         0         0         0         0         
1      805       653       29277     291       189       0         0         0         0         0         
2      628       598       29277     189       189       0         0         0         0         0         
1      827       1226      29277     291       192       0         0         0         0         0         
1      608       738       29277     189       189       0         0         0         0         0         
1      345       651       29277     299       189       0         0         0         0         0         
1      371       738       29277     52        189       0         0         0         0         0         
3      842       746       29277     290       290       0         0         0         0         0         
2      842       746       29277     290       290       0         0         0         0         0         
3      1014      575       29277     84        189       0         0         0         0         0         
3      1014      575       29277     84        189       0         0         0         0         0         
1      527       616       29277     52        131       0         0         0         0         0         
1      875       335       29277     291       119       0         0         0         0         0         
1      526       522       29278     52        52        0         0         0         0         0         
1      557       116       29278     189       9         0         0         0         0         0         
1      888       344       29278     290       299       0         0         0         0         0         
2      947       792       29279     290       290       0         0         0         0         0         
1      295       239       29279     87        87        0         0         0         0         0         
1      1128      916       29279     291       291       0         0         0         0         0         
1      285       175       29279     299       266       0         0         0         0         0         
